N = 6;
Capacity = 11;
Demand = [7, 6, 5, 3, 4, 6];
Distance = [|
  0, 28, 28, 24, 11, 39, 35
| 28, 0, 41, 5, 20, 67, 52
| 28, 41, 0, 37, 25, 43, 11
| 24, 5, 37, 0, 15, 63, 48
| 11, 20, 25, 15, 0, 48, 35
| 39, 67, 43, 63, 48, 0, 38
| 35, 52, 11, 48, 35, 38, 0
|];
